NAME: renA50
TYPE: TSP
COMMENT: 50 random cities (seed : 1, range: 10000)
DIMENSION: 50
EDGE_WEIGHT_TYPE : EUC_2D
NODE_COORD_SECTION
1 8985 4588
2 1847 313
3 4254 4904
4 4434 6606
5 9978 1748
6 6569 8473
7 317 1263
8 5562 1234
9 5592 1262
10 8596 2189
11 5376 332
12 9310 9099
13 2674 6959
14 5298 153
15 7437 1302
16 3205 2854
17 8800 5006
18 1363 3955
19 2689 820
20 8075 2834
21 9415 6660
22 3477 737
23 1477 592
24 4220 9888
25 4500 7357
26 1452 2333
27 3676 4055
28 2536 5345
29 3358 8229
30 8504 8884
31 3600 6151
32 5486 8683
33 4598 1996
34 7908 4514
35 9865 528
36 3859 7716
37 2615 1058
38 9522 4087
39 7192 1731
40 7001 9797
41 7688 5562
42 8241 4708
43 4485 4069
44 6379 4695
45 4759 810
46 4617 8526
47 2374 620
48 3053 8825
49 7101 601
50 5436 6650
EOF
